c File: flat100_3_0.col
c
c SOURCE: Joseph Culberson (joe@cs.ualberta.ca)
c DESCRIPTION: Quasi-random coloring problem
c              generated with flatness = 0
c                             probability = 0.072
c                             known coloring = 3
c                             random seed = 1006
c              Creation Date:  Thu Jun  4 18:54:44 1998
c Maximum degree = 8 Minimum degree = 1
c p edge 100 239
c cnf created by edge2cnf
p cnf 300 1117
-1 -2 0
-1 -3 0
-2 -3 0
1 2 3 0
-4 -5 0
-4 -6 0
-5 -6 0
4 5 6 0
-7 -8 0
-7 -9 0
-8 -9 0
7 8 9 0
-10 -11 0
-10 -12 0
-11 -12 0
10 11 12 0
-13 -14 0
-13 -15 0
-14 -15 0
13 14 15 0
-16 -17 0
-16 -18 0
-17 -18 0
16 17 18 0
-19 -20 0
-19 -21 0
-20 -21 0
19 20 21 0
-22 -23 0
-22 -24 0
-23 -24 0
22 23 24 0
-25 -26 0
-25 -27 0
-26 -27 0
25 26 27 0
-28 -29 0
-28 -30 0
-29 -30 0
28 29 30 0
-31 -32 0
-31 -33 0
-32 -33 0
31 32 33 0
-34 -35 0
-34 -36 0
-35 -36 0
34 35 36 0
-37 -38 0
-37 -39 0
-38 -39 0
37 38 39 0
-40 -41 0
-40 -42 0
-41 -42 0
40 41 42 0
-43 -44 0
-43 -45 0
-44 -45 0
43 44 45 0
-46 -47 0
-46 -48 0
-47 -48 0
46 47 48 0
-49 -50 0
-49 -51 0
-50 -51 0
49 50 51 0
-52 -53 0
-52 -54 0
-53 -54 0
52 53 54 0
-55 -56 0
-55 -57 0
-56 -57 0
55 56 57 0
-58 -59 0
-58 -60 0
-59 -60 0
58 59 60 0
-61 -62 0
-61 -63 0
-62 -63 0
61 62 63 0
-64 -65 0
-64 -66 0
-65 -66 0
64 65 66 0
-67 -68 0
-67 -69 0
-68 -69 0
67 68 69 0
-70 -71 0
-70 -72 0
-71 -72 0
70 71 72 0
-73 -74 0
-73 -75 0
-74 -75 0
73 74 75 0
-76 -77 0
-76 -78 0
-77 -78 0
76 77 78 0
-79 -80 0
-79 -81 0
-80 -81 0
79 80 81 0
-82 -83 0
-82 -84 0
-83 -84 0
82 83 84 0
-85 -86 0
-85 -87 0
-86 -87 0
85 86 87 0
-88 -89 0
-88 -90 0
-89 -90 0
88 89 90 0
-91 -92 0
-91 -93 0
-92 -93 0
91 92 93 0
-94 -95 0
-94 -96 0
-95 -96 0
94 95 96 0
-97 -98 0
-97 -99 0
-98 -99 0
97 98 99 0
-100 -101 0
-100 -102 0
-101 -102 0
100 101 102 0
-103 -104 0
-103 -105 0
-104 -105 0
103 104 105 0
-106 -107 0
-106 -108 0
-107 -108 0
106 107 108 0
-109 -110 0
-109 -111 0
-110 -111 0
109 110 111 0
-112 -113 0
-112 -114 0
-113 -114 0
112 113 114 0
-115 -116 0
-115 -117 0
-116 -117 0
115 116 117 0
-118 -119 0
-118 -120 0
-119 -120 0
118 119 120 0
-121 -122 0
-121 -123 0
-122 -123 0
121 122 123 0
-124 -125 0
-124 -126 0
-125 -126 0
124 125 126 0
-127 -128 0
-127 -129 0
-128 -129 0
127 128 129 0
-130 -131 0
-130 -132 0
-131 -132 0
130 131 132 0
-133 -134 0
-133 -135 0
-134 -135 0
133 134 135 0
-136 -137 0
-136 -138 0
-137 -138 0
136 137 138 0
-139 -140 0
-139 -141 0
-140 -141 0
139 140 141 0
-142 -143 0
-142 -144 0
-143 -144 0
142 143 144 0
-145 -146 0
-145 -147 0
-146 -147 0
145 146 147 0
-148 -149 0
-148 -150 0
-149 -150 0
148 149 150 0
-151 -152 0
-151 -153 0
-152 -153 0
151 152 153 0
-154 -155 0
-154 -156 0
-155 -156 0
154 155 156 0
-157 -158 0
-157 -159 0
-158 -159 0
157 158 159 0
-160 -161 0
-160 -162 0
-161 -162 0
160 161 162 0
-163 -164 0
-163 -165 0
-164 -165 0
163 164 165 0
-166 -167 0
-166 -168 0
-167 -168 0
166 167 168 0
-169 -170 0
-169 -171 0
-170 -171 0
169 170 171 0
-172 -173 0
-172 -174 0
-173 -174 0
172 173 174 0
-175 -176 0
-175 -177 0
-176 -177 0
175 176 177 0
-178 -179 0
-178 -180 0
-179 -180 0
178 179 180 0
-181 -182 0
-181 -183 0
-182 -183 0
181 182 183 0
-184 -185 0
-184 -186 0
-185 -186 0
184 185 186 0
-187 -188 0
-187 -189 0
-188 -189 0
187 188 189 0
-190 -191 0
-190 -192 0
-191 -192 0
190 191 192 0
-193 -194 0
-193 -195 0
-194 -195 0
193 194 195 0
-196 -197 0
-196 -198 0
-197 -198 0
196 197 198 0
-199 -200 0
-199 -201 0
-200 -201 0
199 200 201 0
-202 -203 0
-202 -204 0
-203 -204 0
202 203 204 0
-205 -206 0
-205 -207 0
-206 -207 0
205 206 207 0
-208 -209 0
-208 -210 0
-209 -210 0
208 209 210 0
-211 -212 0
-211 -213 0
-212 -213 0
211 212 213 0
-214 -215 0
-214 -216 0
-215 -216 0
214 215 216 0
-217 -218 0
-217 -219 0
-218 -219 0
217 218 219 0
-220 -221 0
-220 -222 0
-221 -222 0
220 221 222 0
-223 -224 0
-223 -225 0
-224 -225 0
223 224 225 0
-226 -227 0
-226 -228 0
-227 -228 0
226 227 228 0
-229 -230 0
-229 -231 0
-230 -231 0
229 230 231 0
-232 -233 0
-232 -234 0
-233 -234 0
232 233 234 0
-235 -236 0
-235 -237 0
-236 -237 0
235 236 237 0
-238 -239 0
-238 -240 0
-239 -240 0
238 239 240 0
-241 -242 0
-241 -243 0
-242 -243 0
241 242 243 0
-244 -245 0
-244 -246 0
-245 -246 0
244 245 246 0
-247 -248 0
-247 -249 0
-248 -249 0
247 248 249 0
-250 -251 0
-250 -252 0
-251 -252 0
250 251 252 0
-253 -254 0
-253 -255 0
-254 -255 0
253 254 255 0
-256 -257 0
-256 -258 0
-257 -258 0
256 257 258 0
-259 -260 0
-259 -261 0
-260 -261 0
259 260 261 0
-262 -263 0
-262 -264 0
-263 -264 0
262 263 264 0
-265 -266 0
-265 -267 0
-266 -267 0
265 266 267 0
-268 -269 0
-268 -270 0
-269 -270 0
268 269 270 0
-271 -272 0
-271 -273 0
-272 -273 0
271 272 273 0
-274 -275 0
-274 -276 0
-275 -276 0
274 275 276 0
-277 -278 0
-277 -279 0
-278 -279 0
277 278 279 0
-280 -281 0
-280 -282 0
-281 -282 0
280 281 282 0
-283 -284 0
-283 -285 0
-284 -285 0
283 284 285 0
-286 -287 0
-286 -288 0
-287 -288 0
286 287 288 0
-289 -290 0
-289 -291 0
-290 -291 0
289 290 291 0
-292 -293 0
-292 -294 0
-293 -294 0
292 293 294 0
-295 -296 0
-295 -297 0
-296 -297 0
295 296 297 0
-298 -299 0
-298 -300 0
-299 -300 0
298 299 300 0
-109 -1 0
-110 -2 0
-111 -3 0
-112 -1 0
-113 -2 0
-114 -3 0
-151 -1 0
-152 -2 0
-153 -3 0
-229 -1 0
-230 -2 0
-231 -3 0
-265 -1 0
-266 -2 0
-267 -3 0
-160 -4 0
-161 -5 0
-162 -6 0
-175 -4 0
-176 -5 0
-177 -6 0
-208 -4 0
-209 -5 0
-210 -6 0
-223 -4 0
-224 -5 0
-225 -6 0
-277 -4 0
-278 -5 0
-279 -6 0
-295 -4 0
-296 -5 0
-297 -6 0
-103 -7 0
-104 -8 0
-105 -9 0
-256 -7 0
-257 -8 0
-258 -9 0
-280 -7 0
-281 -8 0
-282 -9 0
-298 -7 0
-299 -8 0
-300 -9 0
-121 -10 0
-122 -11 0
-123 -12 0
-124 -10 0
-125 -11 0
-126 -12 0
-136 -10 0
-137 -11 0
-138 -12 0
-193 -10 0
-194 -11 0
-195 -12 0
-214 -10 0
-215 -11 0
-216 -12 0
-220 -10 0
-221 -11 0
-222 -12 0
-295 -10 0
-296 -11 0
-297 -12 0
-115 -13 0
-116 -14 0
-117 -15 0
-166 -13 0
-167 -14 0
-168 -15 0
-187 -13 0
-188 -14 0
-189 -15 0
-256 -13 0
-257 -14 0
-258 -15 0
-208 -16 0
-209 -17 0
-210 -18 0
-274 -16 0
-275 -17 0
-276 -18 0
-115 -19 0
-116 -20 0
-117 -21 0
-157 -19 0
-158 -20 0
-159 -21 0
-166 -19 0
-167 -20 0
-168 -21 0
-256 -19 0
-257 -20 0
-258 -21 0
-115 -22 0
-116 -23 0
-117 -24 0
-277 -22 0
-278 -23 0
-279 -24 0
-124 -25 0
-125 -26 0
-126 -27 0
-127 -25 0
-128 -26 0
-129 -27 0
-139 -25 0
-140 -26 0
-141 -27 0
-190 -25 0
-191 -26 0
-192 -27 0
-208 -25 0
-209 -26 0
-210 -27 0
-217 -25 0
-218 -26 0
-219 -27 0
-292 -25 0
-293 -26 0
-294 -27 0
-106 -28 0
-107 -29 0
-108 -30 0
-148 -28 0
-149 -29 0
-150 -30 0
-154 -28 0
-155 -29 0
-156 -30 0
-247 -28 0
-248 -29 0
-249 -30 0
-271 -28 0
-272 -29 0
-273 -30 0
-214 -31 0
-215 -32 0
-216 -33 0
-103 -34 0
-104 -35 0
-105 -36 0
-211 -34 0
-212 -35 0
-213 -36 0
-220 -34 0
-221 -35 0
-222 -36 0
-172 -37 0
-173 -38 0
-174 -39 0
-199 -37 0
-200 -38 0
-201 -39 0
-205 -37 0
-206 -38 0
-207 -39 0
-238 -37 0
-239 -38 0
-240 -39 0
-244 -37 0
-245 -38 0
-246 -39 0
-124 -40 0
-125 -41 0
-126 -42 0
-166 -40 0
-167 -41 0
-168 -42 0
-193 -40 0
-194 -41 0
-195 -42 0
-202 -40 0
-203 -41 0
-204 -42 0
-280 -40 0
-281 -41 0
-282 -42 0
-283 -40 0
-284 -41 0
-285 -42 0
-127 -43 0
-128 -44 0
-129 -45 0
-139 -43 0
-140 -44 0
-141 -45 0
-154 -43 0
-155 -44 0
-156 -45 0
-181 -43 0
-182 -44 0
-183 -45 0
-211 -43 0
-212 -44 0
-213 -45 0
-235 -43 0
-236 -44 0
-237 -45 0
-238 -43 0
-239 -44 0
-240 -45 0
-265 -43 0
-266 -44 0
-267 -45 0
-109 -46 0
-110 -47 0
-111 -48 0
-130 -46 0
-131 -47 0
-132 -48 0
-205 -46 0
-206 -47 0
-207 -48 0
-244 -46 0
-245 -47 0
-246 -48 0
-262 -46 0
-263 -47 0
-264 -48 0
-109 -49 0
-110 -50 0
-111 -51 0
-136 -49 0
-137 -50 0
-138 -51 0
-178 -49 0
-179 -50 0
-180 -51 0
-238 -49 0
-239 -50 0
-240 -51 0
-283 -49 0
-284 -50 0
-285 -51 0
-229 -52 0
-230 -53 0
-231 -54 0
-238 -52 0
-239 -53 0
-240 -54 0
-256 -52 0
-257 -53 0
-258 -54 0
-130 -55 0
-131 -56 0
-132 -57 0
-118 -58 0
-119 -59 0
-120 -60 0
-208 -58 0
-209 -59 0
-210 -60 0
-211 -58 0
-212 -59 0
-213 -60 0
-268 -58 0
-269 -59 0
-270 -60 0
-277 -58 0
-278 -59 0
-279 -60 0
-106 -61 0
-107 -62 0
-108 -63 0
-148 -61 0
-149 -62 0
-150 -63 0
-181 -61 0
-182 -62 0
-183 -63 0
-253 -61 0
-254 -62 0
-255 -63 0
-280 -61 0
-281 -62 0
-282 -63 0
-139 -64 0
-140 -65 0
-141 -66 0
-178 -64 0
-179 -65 0
-180 -66 0
-205 -64 0
-206 -65 0
-207 -66 0
-250 -64 0
-251 -65 0
-252 -66 0
-262 -64 0
-263 -65 0
-264 -66 0
-103 -67 0
-104 -68 0
-105 -69 0
-118 -67 0
-119 -68 0
-120 -69 0
-145 -67 0
-146 -68 0
-147 -69 0
-178 -67 0
-179 -68 0
-180 -69 0
-259 -67 0
-260 -68 0
-261 -69 0
-295 -67 0
-296 -68 0
-297 -69 0
-187 -70 0
-188 -71 0
-189 -72 0
-193 -70 0
-194 -71 0
-195 -72 0
-196 -70 0
-197 -71 0
-198 -72 0
-247 -70 0
-248 -71 0
-249 -72 0
-262 -70 0
-263 -71 0
-264 -72 0
-130 -73 0
-131 -74 0
-132 -75 0
-184 -73 0
-185 -74 0
-186 -75 0
-214 -73 0
-215 -74 0
-216 -75 0
-220 -73 0
-221 -74 0
-222 -75 0
-265 -73 0
-266 -74 0
-267 -75 0
-283 -73 0
-284 -74 0
-285 -75 0
-151 -76 0
-152 -77 0
-153 -78 0
-250 -76 0
-251 -77 0
-252 -78 0
-115 -79 0
-116 -80 0
-117 -81 0
-124 -79 0
-125 -80 0
-126 -81 0
-154 -79 0
-155 -80 0
-156 -81 0
-163 -79 0
-164 -80 0
-165 -81 0
-205 -79 0
-206 -80 0
-207 -81 0
-283 -79 0
-284 -80 0
-285 -81 0
-298 -79 0
-299 -80 0
-300 -81 0
-118 -82 0
-119 -83 0
-120 -84 0
-139 -82 0
-140 -83 0
-141 -84 0
-148 -82 0
-149 -83 0
-150 -84 0
-169 -82 0
-170 -83 0
-171 -84 0
-286 -82 0
-287 -83 0
-288 -84 0
-127 -85 0
-128 -86 0
-129 -87 0
-133 -85 0
-134 -86 0
-135 -87 0
-196 -85 0
-197 -86 0
-198 -87 0
-232 -85 0
-233 -86 0
-234 -87 0
-259 -85 0
-260 -86 0
-261 -87 0
-277 -85 0
-278 -86 0
-279 -87 0
-280 -85 0
-281 -86 0
-282 -87 0
-157 -88 0
-158 -89 0
-159 -90 0
-163 -88 0
-164 -89 0
-165 -90 0
-184 -88 0
-185 -89 0
-186 -90 0
-202 -88 0
-203 -89 0
-204 -90 0
-247 -88 0
-248 -89 0
-249 -90 0
-259 -88 0
-260 -89 0
-261 -90 0
-289 -88 0
-290 -89 0
-291 -90 0
-118 -91 0
-119 -92 0
-120 -93 0
-121 -91 0
-122 -92 0
-123 -93 0
-151 -91 0
-152 -92 0
-153 -93 0
-217 -91 0
-218 -92 0
-219 -93 0
-262 -91 0
-263 -92 0
-264 -93 0
-151 -94 0
-152 -95 0
-153 -96 0
-169 -94 0
-170 -95 0
-171 -96 0
-250 -94 0
-251 -95 0
-252 -96 0
-109 -97 0
-110 -98 0
-111 -99 0
-145 -97 0
-146 -98 0
-147 -99 0
-157 -97 0
-158 -98 0
-159 -99 0
-292 -97 0
-293 -98 0
-294 -99 0
-142 -100 0
-143 -101 0
-144 -102 0
-178 -100 0
-179 -101 0
-180 -102 0
-211 -100 0
-212 -101 0
-213 -102 0
-232 -100 0
-233 -101 0
-234 -102 0
-265 -100 0
-266 -101 0
-267 -102 0
-298 -100 0
-299 -101 0
-300 -102 0
-217 -103 0
-218 -104 0
-219 -105 0
-226 -103 0
-227 -104 0
-228 -105 0
-277 -103 0
-278 -104 0
-279 -105 0
-295 -106 0
-296 -107 0
-297 -108 0
-298 -106 0
-299 -107 0
-300 -108 0
-202 -109 0
-203 -110 0
-204 -111 0
-229 -109 0
-230 -110 0
-231 -111 0
-241 -109 0
-242 -110 0
-243 -111 0
-259 -109 0
-260 -110 0
-261 -111 0
-274 -112 0
-275 -113 0
-276 -114 0
-247 -115 0
-248 -116 0
-249 -117 0
-250 -115 0
-251 -116 0
-252 -117 0
-256 -115 0
-257 -116 0
-258 -117 0
-274 -115 0
-275 -116 0
-276 -117 0
-202 -118 0
-203 -119 0
-204 -120 0
-211 -118 0
-212 -119 0
-213 -120 0
-229 -118 0
-230 -119 0
-231 -120 0
-202 -121 0
-203 -122 0
-204 -123 0
-262 -121 0
-263 -122 0
-264 -123 0
-223 -124 0
-224 -125 0
-225 -126 0
-265 -124 0
-266 -125 0
-267 -126 0
-211 -127 0
-212 -128 0
-213 -129 0
-232 -130 0
-233 -131 0
-234 -132 0
-292 -130 0
-293 -131 0
-294 -132 0
-241 -136 0
-242 -137 0
-243 -138 0
-280 -136 0
-281 -137 0
-282 -138 0
-289 -136 0
-290 -137 0
-291 -138 0
-205 -139 0
-206 -140 0
-207 -141 0
-226 -139 0
-227 -140 0
-228 -141 0
-283 -139 0
-284 -140 0
-285 -141 0
-214 -142 0
-215 -143 0
-216 -144 0
-241 -142 0
-242 -143 0
-243 -144 0
-226 -145 0
-227 -146 0
-228 -147 0
-247 -145 0
-248 -146 0
-249 -147 0
-253 -145 0
-254 -146 0
-255 -147 0
-265 -151 0
-266 -152 0
-267 -153 0
-289 -151 0
-290 -152 0
-291 -153 0
-298 -151 0
-299 -152 0
-300 -153 0
-205 -154 0
-206 -155 0
-207 -156 0
-208 -154 0
-209 -155 0
-210 -156 0
-268 -154 0
-269 -155 0
-270 -156 0
-283 -154 0
-284 -155 0
-285 -156 0
-205 -157 0
-206 -158 0
-207 -159 0
-202 -160 0
-203 -161 0
-204 -162 0
-223 -160 0
-224 -161 0
-225 -162 0
-286 -160 0
-287 -161 0
-288 -162 0
-205 -163 0
-206 -164 0
-207 -165 0
-223 -163 0
-224 -164 0
-225 -165 0
-277 -166 0
-278 -167 0
-279 -168 0
-295 -166 0
-296 -167 0
-297 -168 0
-229 -169 0
-230 -170 0
-231 -171 0
-256 -169 0
-257 -170 0
-258 -171 0
-262 -169 0
-263 -170 0
-264 -171 0
-277 -169 0
-278 -170 0
-279 -171 0
-295 -172 0
-296 -173 0
-297 -174 0
-250 -175 0
-251 -176 0
-252 -177 0
-256 -175 0
-257 -176 0
-258 -177 0
-283 -178 0
-284 -179 0
-285 -180 0
-217 -181 0
-218 -182 0
-219 -183 0
-247 -181 0
-248 -182 0
-249 -183 0
-268 -181 0
-269 -182 0
-270 -183 0
-217 -184 0
-218 -185 0
-219 -186 0
-253 -184 0
-254 -185 0
-255 -186 0
-265 -184 0
-266 -185 0
-267 -186 0
-283 -184 0
-284 -185 0
-285 -186 0
-259 -187 0
-260 -188 0
-261 -189 0
-226 -190 0
-227 -191 0
-228 -192 0
-235 -190 0
-236 -191 0
-237 -192 0
-250 -193 0
-251 -194 0
-252 -195 0
-280 -193 0
-281 -194 0
-282 -195 0
-298 -193 0
-299 -194 0
-300 -195 0
-217 -196 0
-218 -197 0
-219 -198 0
-235 -196 0
-236 -197 0
-237 -198 0
-277 -196 0
-278 -197 0
-279 -198 0
-253 -199 0
-254 -200 0
-255 -201 0
-256 -199 0
-257 -200 0
-258 -201 0
-286 -199 0
-287 -200 0
-288 -201 0
-289 -199 0
-290 -200 0
-291 -201 0
